Route #1: 36 22 7 44 10 3 32 
Route #2: 9 17 21 29 20 
Route #3: 28 41 31 34 40 1 27 15 19 
Route #4: 12 35 18 25 39 5 
Route #5: 14 26 13 2 37 
Route #6: 23 45 6 43 30 4 38 
Route #7: 11 42 24 16 33 8 
cost 1033.95
